*SPEF "IEEE 1481-1998"
*DESIGN "moonrc_medium"
*DATE "2026-08-24"
*VENDOR "MoonRCInspect"
*PROGRAM "synthetic-fixture"
*VERSION "1.0"
*DESIGN_FLOW "NETLIST_TYPE_VERILOG"
*DIVIDER /
*DELIMITER :
*BUS_DELIMITER [ ]
*T_UNIT 1 PS
*C_UNIT 1 FF
*R_UNIT 1 KOHM
*L_UNIT 1 UH

*NAME_MAP
*1 clk
*2 data
*3 rst_n
*4 u_core
*5 u_io

*PORTS
*1 O
*2 O
*3 O

*D_NET *1 6.0
*CONN
*P *1 O
*I *4:CLK I *L 0.5
*I *5:CLK I *L 0.5
*CAP
1 *1 1.0
2 *1:1 2.0
3 *4:CLK 1.5
4 *5:CLK 1.5
*RES
1 *1 *1:1 0.010
2 *1:1 *4:CLK 0.020
3 *1:1 *5:CLK 0.030
*END

*D_NET *2 5.0
*CONN
*P *2 O
*I *4:D I *L 0.4
*CAP
1 *2 1.0
2 *2:1 1.0
3 *4:D 2.0
4 *2:1 *3 1.0
*RES
1 *2 *2:1 0.015
2 *2:1 *4:D 0.025
*END

*D_NET *3 2.5
*CONN
*P *3 O
*I *4:RESET_B I
*CAP
1 *3 1.0
2 *4:RESET_B 1.5
*RES
1 *3 *4:RESET_B 0.050
*END
