*SPEF "IEEE 1481-1998"
*DESIGN "moonrc_small"
*DATE "2026-08-24"
*VENDOR "MoonRCInspect"
*PROGRAM "synthetic-fixture"
*VERSION "1.0"
*DESIGN_FLOW "NETLIST_TYPE_VERILOG"
*DIVIDER /
*DELIMITER :
*BUS_DELIMITER [ ]
*T_UNIT 1 PS
*C_UNIT 1 FF
*R_UNIT 1 OHM
*L_UNIT 1 UH

*NAME_MAP
*1 clk
*2 u_buf

*PORTS
*1 O *C 0 0

*D_NET *1 4.0
*CONN
*P *1 O *C 0 0
*I *2:A I *C 10 0 *L 0.25
*I *2:B I *C 20 0 *L 0.25
*CAP
1 *1 1.0
2 *1:1 1.0
3 *2:A 1.0
4 *2:B 1.0
*RES
1 *1 *1:1 10.0
2 *1:1 *2:A 20.0
3 *1:1 *2:B 30.0
*END
